24727,
24206,
23187,
22509,
22490,
21740,
20932,
20447,
19625,
19615,
18951,
17106,
17014,
16904,
16820,
16702,
16531,
16381,
16381,
16352,
16352,
16352,
16227,
16227,
16227,
16173,
16173,
16173,
16173,
16173,
16173,
16173,
16161,
16161,
16161,
16161,
16161,
16161,
16161,
16161,
16161,
16161,
16161,
16161,
16161,
16161,
16161,
16161,
16161,
16161,
16161,
16161,
16161,
16161,
16161,
16161,
16161,
16161,
16161,
16161,
16161,
16161,
16161,
16062,
16062,
16062,
16062,
16062,
16062,
15884,
15884,
15723,
15529,
15529,
15529,
15280,
15280,
15280,
15280,
15280,
15280,
15280,
15280,
15280,
15245,
15190,
15190,
15155,
15155,
14838,
14838,
14838,
14838,
14838,
14838,
14838,
14838,
14838,
14838,
14838,
14838,
14838,
14838,
14838,
14838,
14730,
14730,
14730,
14730,
14730,
14730,
14730,
14730,
14730,
14730,
14730,
14730,
14730,
14730,
14730,
14730,
14730,
14730,
14730,
14730,
14730,
14730,
14730,
14730,
14730,
14730,
14730,
14730,
14730,
14730,
14730,
14730,
14730,
14730,
14730,
14730,
14730,
14730,
14730,
14730,
14730,
14730,
14730,
14730,
14730,
14730,
14730,
14730,
14648,
14648,
14648,
14648,
14648,
14648,
14648,
14648,
14648,
14648,
14648,
14648,
14572,
14572,
14572,
14545,
14545,
14545,
14545,
14545,
14545,
14545,
14545,
14545,
14545,
14545,
14545,
14545,
14545,
14545,
14545,
14545,
14545,
14545,
14545,
14545,
14545,
14545,
14545,
14545,
14545,
14272,
14272,
14272,
14272,
14133,
14133,
14133,
14133,
14133,
14133,
14133,
14133,
14133,
14133,
14133,
14133,
14133,
14133,
14133,
14133,
14133,
14133,
14133,
14129,
14129,
14129,
14093,
14093,
14093,
14093,
14093,
14093,
14093,
14093,
14093,
14093,
13979,
13979,
13979,
13979,
13979,
13979,
13979,
13979,
13979,
13979,
13979,
13979,
13976,
13976,
13976,
13976,
13976,
13976,
13976,
13976,
13976,
13976,
13976,
13976,
13976,
13976,
13976,
13976,
13976,
13976,
13976,
13976,
13976,
13976,
13976,
13976,
13976,
13976,
13976,
13976,
13976,
13976,
13976,
13976,
13976,
13976,
13976,
13976,
13976,
13976,
13976,
13976,
13958,
13958,
13958,
13958,
13940,
13940,
13932,
13932,
13932,
13932,
13932,
13932,
13932,
13932,
13932,
13932,
13932,
13932,
13932,
13932,
13932,
13932,
13932,
13932,
13932,
13932,
13932,
13932,
13932,
13932,
13932,
13932,
13932,
13932,
13932,
13932,
13932,
13932,
13932,
13932,
13932,
13932,
13932,
13932,
13932,
13932,
13932,
13932,
13932,
13932,
13932,
13932,
13932,
13932,
13932,
13932,
13932,
13932,
13932,
13932,
13932,
13932,
13932,
13932,
13932,
13932,
13932,
13932,
13932,
13932,
13932,
13932,
13932,
13932,
13932,
13932,
13932,
13932,
13932,
13932,
13932,
13932,
13932,
13932,
13932,
13917,
13917,
13917,
13917,
13724,
13724,
13724,
13724,
13724,
13724,
13724,
13724,
13724,
13724,
13724,
13628,
13628,
13628,
13628,
13628,
13628,
13628,
13628,
13628,
13628,
13628,
13628,
13628,
13628,
13628,
13628,
13628,
13562,
13562,
13562,
13562,
13562,
13562,
13562,
13562,
13562,
13562,
13562,
13562,
13562,
13562,
13562,
13562,
13562,
13562,
13562,
13562,
13562,
13562,
13562,
13562,
13562,
13562,
13562,
13562,
13562,
13562,
13562,
13562,
13562,
13562,
13562,
13562,
13562,
13562,
13562,
13562,
13562,
13562,
13562,
13562,
13562,
13562,
13562,
13562,
13562,
13560,
13560,
13560,
13560,
13560,
13560,
13560,
13560,
13560,
13560,
13560,
13560,
13560,
13560,
13560,
13560,
13560,
13560,
13560,
13560,
13560,
13560,
13560,
13560,
13560,
13560,
13560,
13560,
13560,
13560,
13560,
13560,
13560,
13560,
13560,
13560,
13560,
13560,
13560,
13560,
13560,
13560,
13560,
13560,
13560,
13560,
13560,
13558,
13558,
13558,
13558,
13558,
13544,
13544,
13544,
13544,
13544,
13544,
13544,
13544,
13544,
13544,
13544,
13544,
13544,
13377,
13377,
13377,
13370,
13370,
13370,
13370,
13370,
13370,
13370,
13370,
13370,
13370,
13370,
13370,
13370,
13370,
13370,
13370,
13370,
13370,
13370,
13370,
13370,
13370,
13370,
13370,
13370,
13370,
13370,
13370,
13370,
13370,
13370,
13370,
13370,
13370,
13302,
13302,
13302,
13302,
13302,
13302,
13302,
13302,
13302,
13302,
13302,
13302,
13302,
13302,
13302,
13302,
13302,
13302,
13302,
13302,
13302,
13302,
13302,
13302,
13302,
13302,
13302,
13302,
13302,
13302,
13287,
13287,
13287,
13287,
13287,
13287,
13287,
13287,
13287,
13287,
13287,
13287,
13287,
13287,
13287,
13287,
13287,
13287,
13287,
13287,
13287,
13287,
13287,
13267,
13267,
13267,
13267,
13267,
13267,
13267,
13267,
13267,
13267,
13267,
13267,
13267,
13267,
13267,
13267,
13267,
13267,
13267,
13267,
13267,
13267,
13267,
13267,
13265,
13265,
13265,
13265,
13265,
13265,
13265,
13265,
13265,
13265,
13265,
13265,
13265,
13265,
13265,
13265,
13265,
13265,
13265,
13265,
13265,
13265,
13265,
13265,
13265,
13265,
13265,
13265,
13265,
13265,
13265,
13265,
13265,
13265,
13265,
13265,
13265,
13265,
13265,
13265,
13265,
13265,
13265,
13265,
13265,
13265,
13246,
13246,
13246,
13246,
13246,
13246,
13246,
13246,
13246,
13246,
13227,
13227,
13227,
13227,
13227,
13227,
13227,
13227,
13227,
13227,
13227,
13227,
13227,
13227,
13227,
13227,
13227,
13227,
13227,
13227,
13227,
13227,
13227,
13227,
13227,
13227,
13227,
13227,
13227,
13227,
13227,
13227,
13227,
13227,
13227,
13227,
13227,
13227,
13227,
13227,
13227,
13227,
13227,
13227,
13227,
13227,
13227,
13227,
13227,
13227,
13227,
13227,
13227,
13227,
13227,
13227,
13227,
13227,
13227,
13227,
13227,
13227,
13227,
13227,
13227,
13227,
13227,
13227,
13227,
13227,
13227,
13227,
13211,
13211,
13211,
13211,
13211,
13211,
13211,
13211,
13211,
13211,
13211,
13211,
13211,
13211,
13211,
13211,
13211,
13211,
13211,
13211,
13211,
13211,
13211,
13211,
13211,
13211,
13211,
13211,
13211,
13211,
13211,
13211,
13211,
13211,
13211,
13211,
13211,
13211,
13211,
13211,
13211,
13211,
13211,
13211,
13211,
13211,
13211,
13211,
13211,
13211,
13211,
13211,
13211,
13211,
13211,
13211,
13211,
13211,
13211,
13211,
13211,
13211,
13211,
13211,
13211,
13211,
13118,
13118,
13118,
13118,
13118,
13118,
13118,
13118,
13118,
13118,
13118,
13118,
13118,
13118,
13118,
13118,
13118,
13118,
13118,
13118,
13118,
13118,
13118,
13118,
13118,
13118,
13118,
13118,
13118,
13118,
13118,
13118,
13118,
13118,
13118,
13118,
13118,
13118,
13118,
13118,
13118,
13118,
13118,
13118,
13118,
13118,
13118,
13118,
13042,
13042,
13042,
13042,
13042,
13042,
13042,
13042,
13042,
13042,
13042,
13042,
13042,
13042,
13042,
13042,
13042,
13042,
13042,
13042,
13042,
13042,
13042,
13042,
13042,
13042,
13042,
13042,
13042,
13042,
13042,
13042,
13042,
13012,
13012,
13012,
13012,
13012,
13012,
13012,
12995,
12995,
12995,
12995,
12995,
12995,
12907,
12907,
12907,
12907,
12907,
12907,
12907,
12907,
12907,
12907,
12907,
12907,
12907,
12907,
12907,
12907,
12907,
12907,
12907,
12907,
12907,
12907,
12907,
12907,
12907,
12907,
12907,
12907,
12907,
12907,
12907,
12907,
12907,
12907,
12907,
12907,
12907,
12907,
12907,
12901,
12901,
12901,
12901,
12901,
12901,
12901,
12901,
12901,
12901,
12901,
12901,
12734,
12734,
12734,
12734,
12734,
12734,
12734,
12734,
12734,
12734,
12734,
12734,
12734,
12734,
12734,
12734,
12734,
12734,
12734,
12639,
12639,
12639,
12639,
12639,
12639,
12639,
12639,
12639,
12639,
12639,
12639,
12639,
12639,
12639,
12639,
12639,
12639,
12639,
12639,
12639,
12639,
12639,
12639,
12639,
12639,
12639,
12639,
12639,
12639,
12639,
12639,
12639,
12639,
12639,
12639,
12639,
12639,
12639,
12639,
12639,
12639,
12639,
12639,
12629,
12629,
12629,
12629,
12629,
12629,
12629,
12629,
12629,
12629,
12629,
12629,
12629,
12629,
12629,
12629,
12629,
12629,
12629,
12629,
12629,
12629,
12629,
12629,
12629,
12629,
12629,
12629,
12629,
12629,
12629,
12629,
12629,
12629,
12629,
12629,
12629,
12629,
12629,
12629,
12629,
12629,
12629,
12629,
12629,
12629,
12629,
12629,
12629,
12629,
12629,
12629,
12629,
12629,
12629,
12629,
12629,
12629,
12629,
12629,
12629,
12629,
12629,
12629,
12629,
12629,
12629,
12629,
12629,
12629,
12629,
12629,
12629,
12629,
12629,
12629,
12629,
12629,
12629,
12629,
12629,
12629,
12629,
12629,
12629,
12629,
12629,
12629,
12629,
12629,
12629,
12629,
12629,
12629,
12629,
12629,
12629,
12629,
12629,
12629,
12629,
12629,
12629,
12629,
12629,
12629,
12629,
12629,
12629,
12629,
12629,
12629,
12629,
12629,
12629,
12629,
12629,
12629,
12629,
12629,
12629,
12594,
12594,
12594,
12594,
12594,
12594,
12594,
12594,
12594,
12594,
12594,
12594,
12594,
12594,
12594,
12594,
12594,
12594,
12594,
12594,
12594,
12594,
12594,
12594,
12594,
12594,
12594,
12594,
12594,
12594,
12594,
12594,
12594,
12594,
12594,
12594,
12594,
12594,
12594,
12594,
12594,
12594,
12594,
12594,
12594,
12594,
12594,
12594,
12594,
12594,
12594,
12594,
12594,
12594,
12594,
12594,
12594,
12594,
12594,
12594,
12594,
12594,
12594,
12594,
12594,
12594,
12594,
12594,
12594,
12594,
12594,
12594,
12594,
12594,
12594,
12594,
12594,
12594,
12594,
12594,
12594,
12594,
12594,
12594,
12594,
12594,
12594,
12594,
12594,
12594,
12594,
12594,
12594,
12594,
12594,
12594,
12594,
12594,
12594,
12594,
12594,
12594,
12594,
12594,
12594,
12594,
12594,
12594,
12594,
12594,
12594,
12594,
12594,
12594,
12594,
12594,
12594,
12594,
12594,
12594,
12594,
12594,
12594,
12594,
12594,
12594,
12594,
12594,
12594,
12594,
12594,
12594,
12594,
12594,
12594,
12594,
12594,
12594,
12594,
12594,
12594,
12594,
12594,
12594,
12594,
12594,
12594,
12594,
12594,
12594,
12594,
12594,
12594,
12594,
12594,
12594,
12594,
12594,
12594,
12594,
12574,
12574,
12574,
12574,
12574,
12574,
12574,
12574,
12574,
12574,
12574,
12574,
12574,
12574,
12574,
12574,
12574,
12574,
12574,
12574,
12574,
12574,
12574,
12574,
12574,
12574,
12574,
12574,
12574,
12574,
12574,
12574,
12574,
12574,
12574,
12574,
12574,
12574,
12574,
12574,
12574,
12574,
12574,
12574,
12574,
12574,
12574,
12574,
12574,
12574,
12574,
12574,
12574,
12574,
12574,
12574,
12574,
12574,
12574,
12574,
12574,
12574,
12574,
12574,
12574,
12574,
12574,
12574,
12574,
12574,
12574,
12574,
12574,
12574,
12574,
12574,
12574,
12574,
12574,
12574,
12574,
12574,
12574,
12574,
12574,
12574,
12574,
12574,
12574,
12574,
12574,
12574,
12574,
12574,
12574,
12574,
12574,
12574,
12574,
12574,
12574,
12574,
12574,
12574,
12574,
12574,
12574,
12574,
12574,
12574,
12574,
12574,
12574,
12574,
12574,
12574,
12574,
12574,
12574,
12574,
12574,
12574,
12574,
12574,
12574,
12574,
12574,
12574,
12574,
12574,
12574,
12574,
12574,
12574,
12574,
12574,
12574,
12574,
12574,
12574,
12574,
12574,
12574,
12574,
12574,
12574,
12574,
12574,
12574,
12574,
12574,
12574,
12574,
12574,
12574,
12574,
12574,
12574,
12574,
12574,
12574,
12574,
12574,
12574,
12574,
12574,
12574,
12574,
12574,
12574,
12574,
12574,
12574,
12574,
12574,
12574,
12574,
12491,
12491,
12491,
12491,
12491,
12491,
12491,
12491,
12491,
12491,
12491,
12491,
12491,
12491,
1,
